expected_failures_A=729;
expected_failures_B=713;
expected_failures_C=713;
s=3;
hints=[|
0,0,0,0,0,3,0,6,0|
0,0,0,0,0,0,0,1,0|
0,9,7,5,0,0,0,8,0|
0,0,0,0,9,0,2,0,0|
0,0,8,0,7,0,4,0,0|
0,0,3,0,6,0,0,0,0|
0,1,0,0,0,2,8,9,0|
0,4,0,0,0,0,0,0,0|
0,5,0,1,0,0,0,0,0|];
